DIMACS_lns/graph-1000-303.col
p edge 1000 1841
e 1 780
e 1 143
e 1 826
e 1 637
e 1 180
e 2 289
e 2 946
e 2 775
e 2 765
e 2 413
e 2 739
e 3 383
e 3 471
e 3 481
e 3 527
e 4 966
e 4 595
e 4 127
e 6 770
e 6 565
e 6 460
e 6 325
e 6 362
e 6 196
e 7 620
e 7 382
e 7 907
e 7 326
e 7 939
e 7 208
e 7 100
e 7 173
e 8 333
e 8 395
e 8 762
e 9 79
e 9 536
e 9 538
e 9 931
e 10 394
e 10 782
e 10 69
e 10 819
e 12 74
e 12 30
e 12 642
e 12 180
e 13 536
e 13 740
e 13 61
e 13 861
e 13 665
e 13 215
e 14 206
e 14 447
e 14 392
e 14 849
e 15 85
e 15 118
e 15 352
e 15 767
e 16 613
e 16 561
e 16 629
e 16 135
e 16 857
e 18 160
e 18 614
e 18 777
e 18 720
e 19 58
e 19 987
e 19 757
e 19 704
e 19 821
e 19 985
e 20 48
e 20 905
e 20 176
e 20 740
e 20 616
e 21 608
e 21 299
e 21 390
e 21 126
e 21 228
e 21 127
e 22 757
e 22 166
e 22 667
e 22 935
e 24 510
e 24 979
e 24 920
e 24 55
e 24 837
e 24 207
e 24 523
e 25 793
e 25 262
e 25 741
e 26 755
e 26 547
e 26 328
e 26 110
e 26 406
e 26 661
e 27 143
e 27 892
e 27 885
e 27 347
e 27 966
e 27 292
e 28 876
e 28 269
e 28 469
e 28 422
e 28 823
e 28 442
e 28 704
e 28 918
e 28 646
e 30 932
e 30 583
e 30 205
e 30 936
e 30 590
e 30 917
e 30 456
e 30 771
e 31 604
e 31 144
e 31 550
e 31 312
e 31 155
e 31 965
e 31 957
e 32 593
e 32 698
e 32 386
e 33 491
e 33 474
e 33 867
e 35 433
e 35 462
e 35 908
e 35 174
e 35 39
e 35 411
e 35 230
e 35 451
e 36 422
e 36 172
e 36 105
e 36 386
e 37 328
e 37 489
e 37 643
e 37 694
e 37 146
e 39 445
e 39 301
e 39 153
e 39 405
e 39 110
e 39 750
e 40 228
e 40 821
e 40 886
e 40 612
e 40 685
e 40 174
e 41 818
e 41 392
e 41 696
e 41 750
e 42 575
e 42 941
e 42 506
e 43 297
e 43 947
e 43 73
e 43 415
e 43 769
e 43 550
e 44 845
e 44 698
e 44 963
e 44 110
e 44 567
e 46 87
e 46 405
e 46 207
e 46 483
e 46 501
e 46 890
e 47 269
e 47 85
e 47 964
e 47 817
e 47 837
e 47 548
e 48 59
e 48 476
e 48 434
e 48 201
e 48 479
e 49 396
e 49 255
e 49 991
e 49 132
e 50 599
e 50 358
e 50 256
e 50 962
e 52 822
e 52 480
e 52 615
e 52 698
e 52 411
e 53 210
e 53 211
e 53 470
e 53 242
e 53 103
e 53 241
e 53 350
e 53 418
e 53 947
e 54 405
e 54 887
e 54 719
e 54 341
e 55 114
e 55 514
e 55 509
e 55 442
e 56 235
e 56 957
e 56 684
e 56 196
e 56 804
e 56 310
e 56 534
e 56 132
e 56 160
e 57 215
e 57 847
e 57 276
e 57 604
e 57 830
e 58 334
e 58 960
e 58 378
e 58 661
e 58 218
e 58 132
e 58 885
e 58 460
e 58 312
e 59 941
e 59 692
e 59 315
e 61 519
e 61 949
e 61 471
e 62 471
e 62 501
e 62 262
e 63 235
e 63 325
e 63 674
e 63 645
e 64 76
e 64 877
e 64 408
e 65 113
e 65 804
e 65 371
e 65 580
e 67 942
e 67 801
e 67 86
e 68 276
e 68 583
e 68 569
e 68 981
e 68 233
e 68 953
e 69 605
e 69 780
e 69 715
e 69 813
e 69 946
e 70 510
e 70 396
e 70 82
e 71 423
e 71 412
e 71 216
e 72 473
e 72 336
e 72 256
e 73 698
e 73 413
e 73 590
e 74 506
e 74 196
e 74 340
e 74 545
e 74 215
e 74 161
e 76 175
e 76 88
e 76 165
e 76 980
e 77 129
e 77 330
e 77 348
e 78 989
e 78 291
e 78 491
e 79 259
e 79 770
e 79 657
e 81 350
e 81 153
e 81 517
e 81 967
e 81 234
e 82 392
e 82 99
e 82 670
e 82 388
e 83 302
e 83 742
e 83 701
e 83 334
e 83 205
e 84 757
e 84 915
e 84 804
e 85 498
e 85 95
e 85 142
e 85 490
e 85 339
e 86 723
e 86 423
e 86 910
e 86 300
e 86 659
e 87 463
e 87 181
e 88 240
e 88 435
e 88 607
e 88 556
e 92 528
e 92 880
e 92 575
e 92 191
e 92 522
e 94 471
e 94 690
e 94 974
e 95 308
e 95 569
e 95 178
e 99 678
e 99 244
e 99 769
e 99 161
e 99 564
e 99 942
e 100 276
e 100 921
e 100 824
e 100 733
e 100 423
e 101 289
e 101 204
e 101 518
e 101 935
e 102 216
e 102 950
e 102 277
e 102 237
e 102 932
e 102 355
e 103 984
e 103 881
e 103 295
e 105 777
e 105 882
e 105 501
e 105 343
e 105 767
e 105 145
e 105 586
e 105 274
e 107 595
e 107 697
e 107 164
e 107 671
e 109 796
e 109 531
e 109 807
e 110 830
e 110 727
e 111 412
e 111 509
e 111 122
e 111 674
e 111 835
e 111 712
e 112 135
e 112 414
e 112 250
e 112 831
e 112 950
e 113 311
e 113 240
e 113 457
e 114 555
e 114 397
e 114 136
e 114 577
e 115 564
e 115 477
e 115 353
e 115 548
e 117 937
e 117 868
e 117 567
e 118 139
e 118 954
e 118 723
e 119 756
e 119 348
e 119 175
e 119 385
e 119 439
e 119 334
e 119 677
e 120 343
e 120 776
e 120 750
e 121 450
e 121 842
e 121 319
e 121 521
e 121 745
e 121 307
e 121 646
e 121 912
e 122 474
e 122 981
e 122 214
e 122 912
e 122 887
e 122 239
e 123 193
e 123 806
e 123 399
e 123 439
e 123 572
e 123 658
e 124 435
e 124 257
e 124 350
e 125 842
e 125 768
e 125 444
e 125 508
e 125 189
e 126 733
e 126 712
e 126 815
e 127 852
e 127 911
e 127 844
e 127 605
e 129 400
e 129 625
e 129 547
e 129 982
e 129 264
e 130 372
e 130 243
e 130 627
e 130 811
e 131 890
e 131 770
e 131 542
e 131 242
e 132 848
e 132 998
e 132 988
e 132 964
e 133 908
e 133 571
e 133 275
e 133 950
e 134 421
e 134 620
e 134 181
e 135 318
e 135 722
e 136 456
e 136 578
e 138 633
e 138 861
e 138 234
e 139 939
e 139 356
e 139 425
e 142 591
e 142 205
e 143 242
e 144 722
e 144 845
e 145 453
e 145 312
e 146 309
e 146 477
e 146 185
e 146 772
e 146 582
e 146 269
e 148 252
e 148 326
e 148 244
e 148 288
e 148 889
e 148 297
e 151 949
e 151 264
e 151 566
e 151 561
e 151 572
e 151 620
e 152 305
e 152 749
e 152 318
e 152 260
e 152 344
e 153 635
e 154 972
e 154 463
e 154 389
e 154 863
e 154 861
e 154 627
e 155 809
e 155 685
e 155 819
e 155 917
e 156 685
e 156 379
e 156 347
e 156 891
e 158 544
e 158 814
e 158 689
e 158 511
e 159 662
e 159 645
e 159 292
e 159 394
e 160 391
e 160 916
e 160 353
e 160 497
e 160 473
e 161 987
e 162 193
e 162 612
e 162 179
e 162 845
e 163 189
e 163 248
e 163 771
e 163 295
e 163 185
e 164 674
e 164 773
e 164 590
e 165 176
e 165 797
e 165 309
e 165 901
e 165 457
e 166 628
e 166 835
e 166 355
e 166 418
e 166 587
e 166 818
e 166 700
e 166 830
e 167 228
e 167 299
e 167 626
e 167 860
e 168 956
e 168 312
e 168 850
e 172 388
e 172 624
e 173 643
e 173 321
e 173 633
e 173 921
e 173 844
e 173 445
e 174 908
e 175 850
e 175 847
e 175 534
e 175 445
e 176 469
e 176 341
e 176 934
e 176 394
e 176 849
e 177 861
e 177 674
e 177 759
e 177 853
e 178 532
e 178 695
e 178 526
e 179 238
e 179 830
e 180 260
e 180 801
e 181 743
e 181 431
e 182 258
e 182 196
e 182 792
e 182 878
e 183 768
e 183 351
e 183 777
e 183 795
e 184 339
e 184 629
e 184 773
e 184 930
e 184 868
e 184 833
e 184 831
e 184 263
e 185 583
e 185 806
e 186 755
e 186 509
e 186 840
e 187 991
e 187 243
e 187 329
e 189 366
e 189 414
e 189 969
e 189 710
e 189 737
e 189 826
e 191 990
e 191 519
e 191 712
e 191 433
e 193 760
e 193 886
e 193 196
e 193 626
e 193 358
e 193 509
e 193 303
e 198 599
e 198 678
e 198 635
e 198 334
e 198 262
e 201 804
e 201 442
e 201 993
e 201 506
e 201 394
e 204 827
e 204 489
e 204 879
e 204 259
e 204 860
e 205 783
e 205 534
e 206 775
e 206 255
e 206 264
e 207 939
e 207 386
e 208 570
e 208 1000
e 208 479
e 210 384
e 210 759
e 210 802
e 211 822
e 211 668
e 211 908
e 214 952
e 214 339
e 214 779
e 214 840
e 215 792
e 215 729
e 215 537
e 216 803
e 216 397
e 216 305
e 216 481
e 216 770
e 216 521
e 216 930
e 217 979
e 217 783
e 217 300
e 217 432
e 217 613
e 218 594
e 218 801
e 218 696
e 218 970
e 223 344
e 223 809
e 223 259
e 223 901
e 223 388
e 224 468
e 224 940
e 224 776
e 228 543
e 228 694
e 230 660
e 230 838
e 233 461
e 233 453
e 233 289
e 233 507
e 233 285
e 234 981
e 234 560
e 234 670
e 234 453
e 235 813
e 235 914
e 235 669
e 235 736
e 237 911
e 237 810
e 238 434
e 238 724
e 239 362
e 239 762
e 239 699
e 240 720
e 240 743
e 240 775
e 240 404
e 241 807
e 241 733
e 242 748
e 242 282
e 242 275
e 242 684
e 242 815
e 243 770
e 243 511
e 243 608
e 243 685
e 244 510
e 244 487
e 244 866
e 244 412
e 244 329
e 244 379
e 245 434
e 245 782
e 245 849
e 245 352
e 245 823
e 245 632
e 245 464
e 248 356
e 248 490
e 248 329
e 248 896
e 248 855
e 249 518
e 249 681
e 249 985
e 250 522
e 250 560
e 252 882
e 252 733
e 252 860
e 252 616
e 253 667
e 253 911
e 253 545
e 253 995
e 253 847
e 253 597
e 255 453
e 255 796
e 255 591
e 256 977
e 256 534
e 256 371
e 256 274
e 256 761
e 257 892
e 257 343
e 258 782
e 258 792
e 258 594
e 258 596
e 259 432
e 259 740
e 259 505
e 259 446
e 260 737
e 260 778
e 260 608
e 260 733
e 261 525
e 261 951
e 261 411
e 262 800
e 262 509
e 262 965
e 262 587
e 263 450
e 263 771
e 266 282
e 266 827
e 266 737
e 266 502
e 266 549
e 267 488
e 267 795
e 267 768
e 268 487
e 268 271
e 268 329
e 268 901
e 269 474
e 269 615
e 269 970
e 269 638
e 269 703
e 271 563
e 271 912
e 271 850
e 271 918
e 273 929
e 273 673
e 273 590
e 274 626
e 274 531
e 274 470
e 275 972
e 275 409
e 276 629
e 276 431
e 276 582
e 276 341
e 277 532
e 277 938
e 277 684
e 277 325
e 280 380
e 280 532
e 280 765
e 280 770
e 280 432
e 282 297
e 282 341
e 283 307
e 283 518
e 283 938
e 285 372
e 285 855
e 285 813
e 285 803
e 285 482
e 288 472
e 288 550
e 288 321
e 289 653
e 289 469
e 289 895
e 289 411
e 290 331
e 290 835
e 290 784
e 291 432
e 291 376
e 292 461
e 293 952
e 293 617
e 293 640
e 294 603
e 294 563
e 294 557
e 295 691
e 296 813
e 296 727
e 296 946
e 297 785
e 297 384
e 297 460
e 299 502
e 299 653
e 300 361
e 300 615
e 300 813
e 300 531
e 300 762
e 300 415
e 301 666
e 301 302
e 301 766
e 301 993
e 301 708
e 302 480
e 302 510
e 302 712
e 302 317
e 302 529
e 302 613
e 303 507
e 303 497
e 303 829
e 303 989
e 305 859
e 307 762
e 308 584
e 308 492
e 308 783
e 308 697
e 309 978
e 309 563
e 309 504
e 309 847
e 310 556
e 310 584
e 311 593
e 311 720
e 311 907
e 311 716
e 311 821
e 312 479
e 315 815
e 315 803
e 315 446
e 315 527
e 316 321
e 316 514
e 316 877
e 316 561
e 316 750
e 316 979
e 317 909
e 317 413
e 317 891
e 317 646
e 317 932
e 318 822
e 318 981
e 319 771
e 319 800
e 319 510
e 319 799
e 321 928
e 321 837
e 321 736
e 321 987
e 321 917
e 322 532
e 322 474
e 322 700
e 322 799
e 325 957
e 325 510
e 325 974
e 326 485
e 326 386
e 326 998
e 326 514
e 326 949
e 328 457
e 328 773
e 328 710
e 329 722
e 329 966
e 329 743
e 330 804
e 330 492
e 330 909
e 331 804
e 331 480
e 331 723
e 333 470
e 333 517
e 334 722
e 334 930
e 334 953
e 335 952
e 335 988
e 335 532
e 335 383
e 335 783
e 336 773
e 336 736
e 336 710
e 336 760
e 339 745
e 339 992
e 339 469
e 340 430
e 340 433
e 341 980
e 341 416
e 341 879
e 343 830
e 343 573
e 344 529
e 344 444
e 344 716
e 344 436
e 346 647
e 346 650
e 346 448
e 346 608
e 347 385
e 348 989
e 348 456
e 348 844
e 348 810
e 348 488
e 348 936
e 348 784
e 348 901
e 349 395
e 349 392
e 349 351
e 349 799
e 349 688
e 349 529
e 350 571
e 350 357
e 350 661
e 351 436
e 351 905
e 351 545
e 352 881
e 353 566
e 353 447
e 355 786
e 356 939
e 357 969
e 357 806
e 358 765
e 358 511
e 358 976
e 358 430
e 358 896
e 359 750
e 359 617
e 359 457
e 359 487
e 359 361
e 361 615
e 361 472
e 361 657
e 361 565
e 362 531
e 362 880
e 362 772
e 365 681
e 365 989
e 365 933
e 365 901
e 366 848
e 366 756
e 366 612
e 367 653
e 367 622
e 367 708
e 368 660
e 368 557
e 368 687
e 368 446
e 371 920
e 371 662
e 371 554
e 371 916
e 372 683
e 372 934
e 372 379
e 375 406
e 375 884
e 375 472
e 376 408
e 376 742
e 376 583
e 376 877
e 378 583
e 378 669
e 378 750
e 378 762
e 378 587
e 379 395
e 380 635
e 380 492
e 380 510
e 382 477
e 382 444
e 382 519
e 383 603
e 383 443
e 383 651
e 383 470
e 384 528
e 384 525
e 384 607
e 384 755
e 384 577
e 385 951
e 385 457
e 385 820
e 386 912
e 386 776
e 386 423
e 386 979
e 388 689
e 388 596
e 389 922
e 389 878
e 389 807
e 390 805
e 390 922
e 390 823
e 391 850
e 391 827
e 392 852
e 392 553
e 392 949
e 394 741
e 395 432
e 395 681
e 396 592
e 397 743
e 397 750
e 397 572
e 399 612
e 399 421
e 399 800
e 400 855
e 400 978
e 400 876
e 404 457
e 404 535
e 404 862
e 405 749
e 405 750
e 405 875
e 405 760
e 405 643
e 406 409
e 406 468
e 406 838
e 406 451
e 406 436
e 406 952
e 407 665
e 407 855
e 407 660
e 408 743
e 408 736
e 409 449
e 409 848
e 409 798
e 409 851
e 411 673
e 412 685
e 412 912
e 413 722
e 413 667
e 414 488
e 415 807
e 415 431
e 416 492
e 416 508
e 416 706
e 416 952
e 416 989
e 416 659
e 418 635
e 418 449
e 418 694
e 421 423
e 422 612
e 422 671
e 422 614
e 424 743
e 424 827
e 424 962
e 425 764
e 425 1000
e 425 537
e 426 453
e 426 932
e 426 716
e 430 639
e 430 930
e 430 982
e 431 510
e 431 887
e 431 447
e 431 901
e 431 737
e 431 987
e 432 695
e 432 974
e 432 875
e 433 685
e 434 887
e 435 481
e 435 731
e 436 577
e 436 850
e 436 686
e 438 573
e 438 609
e 438 929
e 438 936
e 439 590
e 439 693
e 441 867
e 441 805
e 441 474
e 442 682
e 442 773
e 442 704
e 443 708
e 443 548
e 443 882
e 444 758
e 444 448
e 445 547
e 446 704
e 446 535
e 446 722
e 448 693
e 449 785
e 449 633
e 450 778
e 450 603
e 450 469
e 450 659
e 451 521
e 451 699
e 451 596
e 453 783
e 456 757
e 456 829
e 457 749
e 459 749
e 459 537
e 459 625
e 460 620
e 460 689
e 460 743
e 461 798
e 461 731
e 462 682
e 462 492
e 463 763
e 463 553
e 463 710
e 463 729
e 463 947
e 464 934
e 464 821
e 464 920
e 468 487
e 468 802
e 468 719
e 469 501
e 469 580
e 470 995
e 470 687
e 471 674
e 471 828
e 471 993
e 472 784
e 473 701
e 473 608
e 473 582
e 474 671
e 474 540
e 474 761
e 474 498
e 475 545
e 475 892
e 475 780
e 476 528
e 476 930
e 476 859
e 477 764
e 477 878
e 479 887
e 479 879
e 479 963
e 479 582
e 480 521
e 480 617
e 480 936
e 480 618
e 480 773
e 481 561
e 481 582
e 482 807
e 482 648
e 482 937
e 483 648
e 483 620
e 485 640
e 485 931
e 486 695
e 486 599
e 486 554
e 486 962
e 486 901
e 486 876
e 487 530
e 488 694
e 488 806
e 489 579
e 489 720
e 490 605
e 490 799
e 490 580
e 490 626
e 490 987
e 491 779
e 491 933
e 492 862
e 492 637
e 492 978
e 492 535
e 493 844
e 493 934
e 493 540
e 497 618
e 497 609
e 498 826
e 498 553
e 498 963
e 500 940
e 500 542
e 500 755
e 500 767
e 502 957
e 504 771
e 504 703
e 505 736
e 505 963
e 506 699
e 506 759
e 507 984
e 507 814
e 507 869
e 508 775
e 509 821
e 509 535
e 509 715
e 510 653
e 510 829
e 511 642
e 511 827
e 514 840
e 514 745
e 517 625
e 517 727
e 518 828
e 521 647
e 522 863
e 522 954
e 523 811
e 523 995
e 525 749
e 525 873
e 526 844
e 526 607
e 526 853
e 527 845
e 527 703
e 528 573
e 529 667
e 529 648
e 529 633
e 529 969
e 529 685
e 530 635
e 530 782
e 531 537
e 531 800
e 532 929
e 532 769
e 534 642
e 534 765
e 534 763
e 534 698
e 535 820
e 535 537
e 536 815
e 537 976
e 537 928
e 538 638
e 538 642
e 540 668
e 540 921
e 540 956
e 542 810
e 542 824
e 542 692
e 543 882
e 543 908
e 543 937
e 544 637
e 544 933
e 545 853
e 545 844
e 549 916
e 549 976
e 550 866
e 554 659
e 554 896
e 555 759
e 555 732
e 556 804
e 557 844
e 560 979
e 560 823
e 560 567
e 560 757
e 560 820
e 561 940
e 561 625
e 563 910
e 563 993
e 563 966
e 564 650
e 565 624
e 566 882
e 566 663
e 569 915
e 569 862
e 570 965
e 570 626
e 570 678
e 570 880
e 571 869
e 572 582
e 572 619
e 572 580
e 573 690
e 573 852
e 573 661
e 575 756
e 577 707
e 577 778
e 577 806
e 577 914
e 577 854
e 578 895
e 578 864
e 578 970
e 579 804
e 579 863
e 579 732
e 580 682
e 580 956
e 580 917
e 580 626
e 582 670
e 582 873
e 583 842
e 583 710
e 584 712
e 584 639
e 586 877
e 586 648
e 587 597
e 587 892
e 590 677
e 591 788
e 591 777
e 591 674
e 592 678
e 592 895
e 593 638
e 594 890
e 595 689
e 596 764
e 596 980
e 597 731
e 603 729
e 604 914
e 604 992
e 604 667
e 605 822
e 605 686
e 607 778
e 607 773
e 609 654
e 609 978
e 609 915
e 610 869
e 610 758
e 610 878
e 612 728
e 612 845
e 613 985
e 614 677
e 614 827
e 614 799
e 615 620
e 616 999
e 617 884
e 618 638
e 619 845
e 619 908
e 619 800
e 622 645
e 622 763
e 624 635
e 625 728
e 626 668
e 626 687
e 627 805
e 628 691
e 628 887
e 629 693
e 632 682
e 632 884
e 633 999
e 633 759
e 633 661
e 635 638
e 635 953
e 635 881
e 635 682
e 638 986
e 638 798
e 639 728
e 639 956
e 640 706
e 640 662
e 640 979
e 640 648
e 642 647
e 642 815
e 642 689
e 648 768
e 648 723
e 648 683
e 650 674
e 651 979
e 651 788
e 653 921
e 653 690
e 654 655
e 654 907
e 655 838
e 655 854
e 657 772
e 657 773
e 658 770
e 658 986
e 659 670
e 659 868
e 660 769
e 660 981
e 660 776
e 660 804
e 661 970
e 662 879
e 663 813
e 663 942
e 665 849
e 666 724
e 666 806
e 667 885
e 668 777
e 669 814
e 669 985
e 669 796
e 669 826
e 669 696
e 670 696
e 671 914
e 671 759
e 671 736
e 673 859
e 673 921
e 674 862
e 674 930
e 674 928
e 674 759
e 678 993
e 681 775
e 681 995
e 681 758
e 681 811
e 681 918
e 682 809
e 682 991
e 683 854
e 685 731
e 685 805
e 685 986
e 686 697
e 686 969
e 687 852
e 687 873
e 687 765
e 688 967
e 688 833
e 689 727
e 689 800
e 690 802
e 690 707
e 690 967
e 690 984
e 691 931
e 692 773
e 694 817
e 694 829
e 694 743
e 695 706
e 697 850
e 697 727
e 697 760
e 697 801
e 699 746
e 699 708
e 700 850
e 700 882
e 700 753
e 701 740
e 701 795
e 703 722
e 703 914
e 704 942
e 706 844
e 707 768
e 707 880
e 708 969
e 708 731
e 710 761
e 710 907
e 715 866
e 715 990
e 716 771
e 719 917
e 720 952
e 720 866
e 720 727
e 723 931
e 723 864
e 723 769
e 724 753
e 724 810
e 724 895
e 732 762
e 733 920
e 733 939
e 737 804
e 737 999
e 737 759
e 739 912
e 739 775
e 740 952
e 740 780
e 740 977
e 740 863
e 741 1000
e 742 755
e 742 819
e 743 964
e 743 977
e 745 795
e 746 842
e 746 804
e 746 840
e 748 889
e 748 864
e 748 952
e 749 938
e 749 753
e 750 777
e 753 859
e 757 916
e 758 892
e 759 949
e 759 777
e 759 785
e 761 821
e 762 878
e 762 796
e 763 766
e 764 965
e 766 851
e 766 947
e 767 942
e 768 889
e 768 863
e 768 920
e 769 881
e 771 954
e 773 806
e 775 989
e 775 916
e 777 935
e 779 965
e 780 784
e 780 805
e 782 796
e 784 822
e 784 995
e 785 799
e 786 879
e 786 933
e 786 890
e 788 850
e 792 942
e 792 933
e 792 939
e 793 960
e 793 863
e 795 819
e 796 821
e 797 890
e 797 807
e 798 853
e 799 977
e 799 910
e 800 809
e 803 818
e 810 935
e 811 877
e 813 949
e 814 978
e 817 999
e 818 1000
e 820 931
e 820 999
e 822 911
e 824 937
e 826 965
e 827 830
e 828 878
e 828 869
e 828 986
e 831 969
e 831 938
e 833 915
e 835 954
e 835 965
e 837 990
e 837 980
e 840 895
e 842 940
e 844 901
e 848 951
e 850 979
e 851 910
e 852 991
e 853 987
e 854 982
e 854 964
e 857 867
e 857 886
e 859 986
e 861 962
e 862 867
e 862 905
e 863 877
e 864 941
e 864 962
e 868 936
e 869 932
e 873 951
e 875 893
e 876 989
e 876 960
e 878 893
e 878 908
e 879 884
e 879 989
e 882 982
e 884 920
e 890 905
e 890 970
e 891 922
e 893 985
e 893 954
e 896 998
e 901 910
e 901 992
e 909 912
e 910 974
e 911 930
e 915 986
e 916 942
e 922 982
e 929 995
e 933 998
e 934 946
e 939 942
e 939 967
e 942 960
e 950 972
e 977 986
e 979 988
e 980 981
