txt_Ins/graph-1000-303.txt
n 1000
e 0 779
e 0 142
e 0 825
e 0 636
e 0 179
e 1 288
e 1 945
e 1 774
e 1 764
e 1 412
e 1 738
e 2 382
e 2 470
e 2 480
e 2 526
e 3 965
e 3 594
e 3 126
e 5 769
e 5 564
e 5 459
e 5 324
e 5 361
e 5 195
e 6 619
e 6 381
e 6 906
e 6 325
e 6 938
e 6 207
e 6 99
e 6 172
e 7 332
e 7 394
e 7 761
e 8 78
e 8 535
e 8 537
e 8 930
e 9 393
e 9 781
e 9 68
e 9 818
e 11 73
e 11 29
e 11 641
e 11 179
e 12 535
e 12 739
e 12 60
e 12 860
e 12 664
e 12 214
e 13 205
e 13 446
e 13 391
e 13 848
e 14 84
e 14 117
e 14 351
e 14 766
e 15 612
e 15 560
e 15 628
e 15 134
e 15 856
e 17 159
e 17 613
e 17 776
e 17 719
e 18 57
e 18 986
e 18 756
e 18 703
e 18 820
e 18 984
e 19 47
e 19 904
e 19 175
e 19 739
e 19 615
e 20 607
e 20 298
e 20 389
e 20 125
e 20 227
e 20 126
e 21 756
e 21 165
e 21 666
e 21 934
e 23 509
e 23 978
e 23 919
e 23 54
e 23 836
e 23 206
e 23 522
e 24 792
e 24 261
e 24 740
e 25 754
e 25 546
e 25 327
e 25 109
e 25 405
e 25 660
e 26 142
e 26 891
e 26 884
e 26 346
e 26 965
e 26 291
e 27 875
e 27 268
e 27 468
e 27 421
e 27 822
e 27 441
e 27 703
e 27 917
e 27 645
e 29 931
e 29 582
e 29 204
e 29 935
e 29 589
e 29 916
e 29 455
e 29 770
e 30 603
e 30 143
e 30 549
e 30 311
e 30 154
e 30 964
e 30 956
e 31 592
e 31 697
e 31 385
e 32 490
e 32 473
e 32 866
e 34 432
e 34 461
e 34 907
e 34 173
e 34 38
e 34 410
e 34 229
e 34 450
e 35 421
e 35 171
e 35 104
e 35 385
e 36 327
e 36 488
e 36 642
e 36 693
e 36 145
e 38 444
e 38 300
e 38 152
e 38 404
e 38 109
e 38 749
e 39 227
e 39 820
e 39 885
e 39 611
e 39 684
e 39 173
e 40 817
e 40 391
e 40 695
e 40 749
e 41 574
e 41 940
e 41 505
e 42 296
e 42 946
e 42 72
e 42 414
e 42 768
e 42 549
e 43 844
e 43 697
e 43 962
e 43 109
e 43 566
e 45 86
e 45 404
e 45 206
e 45 482
e 45 500
e 45 889
e 46 268
e 46 84
e 46 963
e 46 816
e 46 836
e 46 547
e 47 58
e 47 475
e 47 433
e 47 200
e 47 478
e 48 395
e 48 254
e 48 990
e 48 131
e 49 598
e 49 357
e 49 255
e 49 961
e 51 821
e 51 479
e 51 614
e 51 697
e 51 410
e 52 209
e 52 210
e 52 469
e 52 241
e 52 102
e 52 240
e 52 349
e 52 417
e 52 946
e 53 404
e 53 886
e 53 718
e 53 340
e 54 113
e 54 513
e 54 508
e 54 441
e 55 234
e 55 956
e 55 683
e 55 195
e 55 803
e 55 309
e 55 533
e 55 131
e 55 159
e 56 214
e 56 846
e 56 275
e 56 603
e 56 829
e 57 333
e 57 959
e 57 377
e 57 660
e 57 217
e 57 131
e 57 884
e 57 459
e 57 311
e 58 940
e 58 691
e 58 314
e 60 518
e 60 948
e 60 470
e 61 470
e 61 500
e 61 261
e 62 234
e 62 324
e 62 673
e 62 644
e 63 75
e 63 876
e 63 407
e 64 112
e 64 803
e 64 370
e 64 579
e 66 941
e 66 800
e 66 85
e 67 275
e 67 582
e 67 568
e 67 980
e 67 232
e 67 952
e 68 604
e 68 779
e 68 714
e 68 812
e 68 945
e 69 509
e 69 395
e 69 81
e 70 422
e 70 411
e 70 215
e 71 472
e 71 335
e 71 255
e 72 697
e 72 412
e 72 589
e 73 505
e 73 195
e 73 339
e 73 544
e 73 214
e 73 160
e 75 174
e 75 87
e 75 164
e 75 979
e 76 128
e 76 329
e 76 347
e 77 988
e 77 290
e 77 490
e 78 258
e 78 769
e 78 656
e 80 349
e 80 152
e 80 516
e 80 966
e 80 233
e 81 391
e 81 98
e 81 669
e 81 387
e 82 301
e 82 741
e 82 700
e 82 333
e 82 204
e 83 756
e 83 914
e 83 803
e 84 497
e 84 94
e 84 141
e 84 489
e 84 338
e 85 722
e 85 422
e 85 909
e 85 299
e 85 658
e 86 462
e 86 180
e 87 239
e 87 434
e 87 606
e 87 555
e 91 527
e 91 879
e 91 574
e 91 190
e 91 521
e 93 470
e 93 689
e 93 973
e 94 307
e 94 568
e 94 177
e 98 677
e 98 243
e 98 768
e 98 160
e 98 563
e 98 941
e 99 275
e 99 920
e 99 823
e 99 732
e 99 422
e 100 288
e 100 203
e 100 517
e 100 934
e 101 215
e 101 949
e 101 276
e 101 236
e 101 931
e 101 354
e 102 983
e 102 880
e 102 294
e 104 776
e 104 881
e 104 500
e 104 342
e 104 766
e 104 144
e 104 585
e 104 273
e 106 594
e 106 696
e 106 163
e 106 670
e 108 795
e 108 530
e 108 806
e 109 829
e 109 726
e 110 411
e 110 508
e 110 121
e 110 673
e 110 834
e 110 711
e 111 134
e 111 413
e 111 249
e 111 830
e 111 949
e 112 310
e 112 239
e 112 456
e 113 554
e 113 396
e 113 135
e 113 576
e 114 563
e 114 476
e 114 352
e 114 547
e 116 936
e 116 867
e 116 566
e 117 138
e 117 953
e 117 722
e 118 755
e 118 347
e 118 174
e 118 384
e 118 438
e 118 333
e 118 676
e 119 342
e 119 775
e 119 749
e 120 449
e 120 841
e 120 318
e 120 520
e 120 744
e 120 306
e 120 645
e 120 911
e 121 473
e 121 980
e 121 213
e 121 911
e 121 886
e 121 238
e 122 192
e 122 805
e 122 398
e 122 438
e 122 571
e 122 657
e 123 434
e 123 256
e 123 349
e 124 841
e 124 767
e 124 443
e 124 507
e 124 188
e 125 732
e 125 711
e 125 814
e 126 851
e 126 910
e 126 843
e 126 604
e 128 399
e 128 624
e 128 546
e 128 981
e 128 263
e 129 371
e 129 242
e 129 626
e 129 810
e 130 889
e 130 769
e 130 541
e 130 241
e 131 847
e 131 997
e 131 987
e 131 963
e 132 907
e 132 570
e 132 274
e 132 949
e 133 420
e 133 619
e 133 180
e 134 317
e 134 721
e 135 455
e 135 577
e 137 632
e 137 860
e 137 233
e 138 938
e 138 355
e 138 424
e 141 590
e 141 204
e 142 241
e 143 721
e 143 844
e 144 452
e 144 311
e 145 308
e 145 476
e 145 184
e 145 771
e 145 581
e 145 268
e 147 251
e 147 325
e 147 243
e 147 287
e 147 888
e 147 296
e 150 948
e 150 263
e 150 565
e 150 560
e 150 571
e 150 619
e 151 304
e 151 748
e 151 317
e 151 259
e 151 343
e 152 634
e 153 971
e 153 462
e 153 388
e 153 862
e 153 860
e 153 626
e 154 808
e 154 684
e 154 818
e 154 916
e 155 684
e 155 378
e 155 346
e 155 890
e 157 543
e 157 813
e 157 688
e 157 510
e 158 661
e 158 644
e 158 291
e 158 393
e 159 390
e 159 915
e 159 352
e 159 496
e 159 472
e 160 986
e 161 192
e 161 611
e 161 178
e 161 844
e 162 188
e 162 247
e 162 770
e 162 294
e 162 184
e 163 673
e 163 772
e 163 589
e 164 175
e 164 796
e 164 308
e 164 900
e 164 456
e 165 627
e 165 834
e 165 354
e 165 417
e 165 586
e 165 817
e 165 699
e 165 829
e 166 227
e 166 298
e 166 625
e 166 859
e 167 955
e 167 311
e 167 849
e 171 387
e 171 623
e 172 642
e 172 320
e 172 632
e 172 920
e 172 843
e 172 444
e 173 907
e 174 849
e 174 846
e 174 533
e 174 444
e 175 468
e 175 340
e 175 933
e 175 393
e 175 848
e 176 860
e 176 673
e 176 758
e 176 852
e 177 531
e 177 694
e 177 525
e 178 237
e 178 829
e 179 259
e 179 800
e 180 742
e 180 430
e 181 257
e 181 195
e 181 791
e 181 877
e 182 767
e 182 350
e 182 776
e 182 794
e 183 338
e 183 628
e 183 772
e 183 929
e 183 867
e 183 832
e 183 830
e 183 262
e 184 582
e 184 805
e 185 754
e 185 508
e 185 839
e 186 990
e 186 242
e 186 328
e 188 365
e 188 413
e 188 968
e 188 709
e 188 736
e 188 825
e 190 989
e 190 518
e 190 711
e 190 432
e 192 759
e 192 885
e 192 195
e 192 625
e 192 357
e 192 508
e 192 302
e 197 598
e 197 677
e 197 634
e 197 333
e 197 261
e 200 803
e 200 441
e 200 992
e 200 505
e 200 393
e 203 826
e 203 488
e 203 878
e 203 258
e 203 859
e 204 782
e 204 533
e 205 774
e 205 254
e 205 263
e 206 938
e 206 385
e 207 569
e 207 999
e 207 478
e 209 383
e 209 758
e 209 801
e 210 821
e 210 667
e 210 907
e 213 951
e 213 338
e 213 778
e 213 839
e 214 791
e 214 728
e 214 536
e 215 802
e 215 396
e 215 304
e 215 480
e 215 769
e 215 520
e 215 929
e 216 978
e 216 782
e 216 299
e 216 431
e 216 612
e 217 593
e 217 800
e 217 695
e 217 969
e 222 343
e 222 808
e 222 258
e 222 900
e 222 387
e 223 467
e 223 939
e 223 775
e 227 542
e 227 693
e 229 659
e 229 837
e 232 460
e 232 452
e 232 288
e 232 506
e 232 284
e 233 980
e 233 559
e 233 669
e 233 452
e 234 812
e 234 913
e 234 668
e 234 735
e 236 910
e 236 809
e 237 433
e 237 723
e 238 361
e 238 761
e 238 698
e 239 719
e 239 742
e 239 774
e 239 403
e 240 806
e 240 732
e 241 747
e 241 281
e 241 274
e 241 683
e 241 814
e 242 769
e 242 510
e 242 607
e 242 684
e 243 509
e 243 486
e 243 865
e 243 411
e 243 328
e 243 378
e 244 433
e 244 781
e 244 848
e 244 351
e 244 822
e 244 631
e 244 463
e 247 355
e 247 489
e 247 328
e 247 895
e 247 854
e 248 517
e 248 680
e 248 984
e 249 521
e 249 559
e 251 881
e 251 732
e 251 859
e 251 615
e 252 666
e 252 910
e 252 544
e 252 994
e 252 846
e 252 596
e 254 452
e 254 795
e 254 590
e 255 976
e 255 533
e 255 370
e 255 273
e 255 760
e 256 891
e 256 342
e 257 781
e 257 791
e 257 593
e 257 595
e 258 431
e 258 739
e 258 504
e 258 445
e 259 736
e 259 777
e 259 607
e 259 732
e 260 524
e 260 950
e 260 410
e 261 799
e 261 508
e 261 964
e 261 586
e 262 449
e 262 770
e 265 281
e 265 826
e 265 736
e 265 501
e 265 548
e 266 487
e 266 794
e 266 767
e 267 486
e 267 270
e 267 328
e 267 900
e 268 473
e 268 614
e 268 969
e 268 637
e 268 702
e 270 562
e 270 911
e 270 849
e 270 917
e 272 928
e 272 672
e 272 589
e 273 625
e 273 530
e 273 469
e 274 971
e 274 408
e 275 628
e 275 430
e 275 581
e 275 340
e 276 531
e 276 937
e 276 683
e 276 324
e 279 379
e 279 531
e 279 764
e 279 769
e 279 431
e 281 296
e 281 340
e 282 306
e 282 517
e 282 937
e 284 371
e 284 854
e 284 812
e 284 802
e 284 481
e 287 471
e 287 549
e 287 320
e 288 652
e 288 468
e 288 894
e 288 410
e 289 330
e 289 834
e 289 783
e 290 431
e 290 375
e 291 460
e 292 951
e 292 616
e 292 639
e 293 602
e 293 562
e 293 556
e 294 690
e 295 812
e 295 726
e 295 945
e 296 784
e 296 383
e 296 459
e 298 501
e 298 652
e 299 360
e 299 614
e 299 812
e 299 530
e 299 761
e 299 414
e 300 665
e 300 301
e 300 765
e 300 992
e 300 707
e 301 479
e 301 509
e 301 711
e 301 316
e 301 528
e 301 612
e 302 506
e 302 496
e 302 828
e 302 988
e 304 858
e 306 761
e 307 583
e 307 491
e 307 782
e 307 696
e 308 977
e 308 562
e 308 503
e 308 846
e 309 555
e 309 583
e 310 592
e 310 719
e 310 906
e 310 715
e 310 820
e 311 478
e 314 814
e 314 802
e 314 445
e 314 526
e 315 320
e 315 513
e 315 876
e 315 560
e 315 749
e 315 978
e 316 908
e 316 412
e 316 890
e 316 645
e 316 931
e 317 821
e 317 980
e 318 770
e 318 799
e 318 509
e 318 798
e 320 927
e 320 836
e 320 735
e 320 986
e 320 916
e 321 531
e 321 473
e 321 699
e 321 798
e 324 956
e 324 509
e 324 973
e 325 484
e 325 385
e 325 997
e 325 513
e 325 948
e 327 456
e 327 772
e 327 709
e 328 721
e 328 965
e 328 742
e 329 803
e 329 491
e 329 908
e 330 803
e 330 479
e 330 722
e 332 469
e 332 516
e 333 721
e 333 929
e 333 952
e 334 951
e 334 987
e 334 531
e 334 382
e 334 782
e 335 772
e 335 735
e 335 709
e 335 759
e 338 744
e 338 991
e 338 468
e 339 429
e 339 432
e 340 979
e 340 415
e 340 878
e 342 829
e 342 572
e 343 528
e 343 443
e 343 715
e 343 435
e 345 646
e 345 649
e 345 447
e 345 607
e 346 384
e 347 988
e 347 455
e 347 843
e 347 809
e 347 487
e 347 935
e 347 783
e 347 900
e 348 394
e 348 391
e 348 350
e 348 798
e 348 687
e 348 528
e 349 570
e 349 356
e 349 660
e 350 435
e 350 904
e 350 544
e 351 880
e 352 565
e 352 446
e 354 785
e 355 938
e 356 968
e 356 805
e 357 764
e 357 510
e 357 975
e 357 429
e 357 895
e 358 749
e 358 616
e 358 456
e 358 486
e 358 360
e 360 614
e 360 471
e 360 656
e 360 564
e 361 530
e 361 879
e 361 771
e 364 680
e 364 988
e 364 932
e 364 900
e 365 847
e 365 755
e 365 611
e 366 652
e 366 621
e 366 707
e 367 659
e 367 556
e 367 686
e 367 445
e 370 919
e 370 661
e 370 553
e 370 915
e 371 682
e 371 933
e 371 378
e 374 405
e 374 883
e 374 471
e 375 407
e 375 741
e 375 582
e 375 876
e 377 582
e 377 668
e 377 749
e 377 761
e 377 586
e 378 394
e 379 634
e 379 491
e 379 509
e 381 476
e 381 443
e 381 518
e 382 602
e 382 442
e 382 650
e 382 469
e 383 527
e 383 524
e 383 606
e 383 754
e 383 576
e 384 950
e 384 456
e 384 819
e 385 911
e 385 775
e 385 422
e 385 978
e 387 688
e 387 595
e 388 921
e 388 877
e 388 806
e 389 804
e 389 921
e 389 822
e 390 849
e 390 826
e 391 851
e 391 552
e 391 948
e 393 740
e 394 431
e 394 680
e 395 591
e 396 742
e 396 749
e 396 571
e 398 611
e 398 420
e 398 799
e 399 854
e 399 977
e 399 875
e 403 456
e 403 534
e 403 861
e 404 748
e 404 749
e 404 874
e 404 759
e 404 642
e 405 408
e 405 467
e 405 837
e 405 450
e 405 435
e 405 951
e 406 664
e 406 854
e 406 659
e 407 742
e 407 735
e 408 448
e 408 847
e 408 797
e 408 850
e 410 672
e 411 684
e 411 911
e 412 721
e 412 666
e 413 487
e 414 806
e 414 430
e 415 491
e 415 507
e 415 705
e 415 951
e 415 988
e 415 658
e 417 634
e 417 448
e 417 693
e 420 422
e 421 611
e 421 670
e 421 613
e 423 742
e 423 826
e 423 961
e 424 763
e 424 999
e 424 536
e 425 452
e 425 931
e 425 715
e 429 638
e 429 929
e 429 981
e 430 509
e 430 886
e 430 446
e 430 900
e 430 736
e 430 986
e 431 694
e 431 973
e 431 874
e 432 684
e 433 886
e 434 480
e 434 730
e 435 576
e 435 849
e 435 685
e 437 572
e 437 608
e 437 928
e 437 935
e 438 589
e 438 692
e 440 866
e 440 804
e 440 473
e 441 681
e 441 772
e 441 703
e 442 707
e 442 547
e 442 881
e 443 757
e 443 447
e 444 546
e 445 703
e 445 534
e 445 721
e 447 692
e 448 784
e 448 632
e 449 777
e 449 602
e 449 468
e 449 658
e 450 520
e 450 698
e 450 595
e 452 782
e 455 756
e 455 828
e 456 748
e 458 748
e 458 536
e 458 624
e 459 619
e 459 688
e 459 742
e 460 797
e 460 730
e 461 681
e 461 491
e 462 762
e 462 552
e 462 709
e 462 728
e 462 946
e 463 933
e 463 820
e 463 919
e 467 486
e 467 801
e 467 718
e 468 500
e 468 579
e 469 994
e 469 686
e 470 673
e 470 827
e 470 992
e 471 783
e 472 700
e 472 607
e 472 581
e 473 670
e 473 539
e 473 760
e 473 497
e 474 544
e 474 891
e 474 779
e 475 527
e 475 929
e 475 858
e 476 763
e 476 877
e 478 886
e 478 878
e 478 962
e 478 581
e 479 520
e 479 616
e 479 935
e 479 617
e 479 772
e 480 560
e 480 581
e 481 806
e 481 647
e 481 936
e 482 647
e 482 619
e 484 639
e 484 930
e 485 694
e 485 598
e 485 553
e 485 961
e 485 900
e 485 875
e 486 529
e 487 693
e 487 805
e 488 578
e 488 719
e 489 604
e 489 798
e 489 579
e 489 625
e 489 986
e 490 778
e 490 932
e 491 861
e 491 636
e 491 977
e 491 534
e 492 843
e 492 933
e 492 539
e 496 617
e 496 608
e 497 825
e 497 552
e 497 962
e 499 939
e 499 541
e 499 754
e 499 766
e 501 956
e 503 770
e 503 702
e 504 735
e 504 962
e 505 698
e 505 758
e 506 983
e 506 813
e 506 868
e 507 774
e 508 820
e 508 534
e 508 714
e 509 652
e 509 828
e 510 641
e 510 826
e 513 839
e 513 744
e 516 624
e 516 726
e 517 827
e 520 646
e 521 862
e 521 953
e 522 810
e 522 994
e 524 748
e 524 872
e 525 843
e 525 606
e 525 852
e 526 844
e 526 702
e 527 572
e 528 666
e 528 647
e 528 632
e 528 968
e 528 684
e 529 634
e 529 781
e 530 536
e 530 799
e 531 928
e 531 768
e 533 641
e 533 764
e 533 762
e 533 697
e 534 819
e 534 536
e 535 814
e 536 975
e 536 927
e 537 637
e 537 641
e 539 667
e 539 920
e 539 955
e 541 809
e 541 823
e 541 691
e 542 881
e 542 907
e 542 936
e 543 636
e 543 932
e 544 852
e 544 843
e 548 915
e 548 975
e 549 865
e 553 658
e 553 895
e 554 758
e 554 731
e 555 803
e 556 843
e 559 978
e 559 822
e 559 566
e 559 756
e 559 819
e 560 939
e 560 624
e 562 909
e 562 992
e 562 965
e 563 649
e 564 623
e 565 881
e 565 662
e 568 914
e 568 861
e 569 964
e 569 625
e 569 677
e 569 879
e 570 868
e 571 581
e 571 618
e 571 579
e 572 689
e 572 851
e 572 660
e 574 755
e 576 706
e 576 777
e 576 805
e 576 913
e 576 853
e 577 894
e 577 863
e 577 969
e 578 803
e 578 862
e 578 731
e 579 681
e 579 955
e 579 916
e 579 625
e 581 669
e 581 872
e 582 841
e 582 709
e 583 711
e 583 638
e 585 876
e 585 647
e 586 596
e 586 891
e 589 676
e 590 787
e 590 776
e 590 673
e 591 677
e 591 894
e 592 637
e 593 889
e 594 688
e 595 763
e 595 979
e 596 730
e 602 728
e 603 913
e 603 991
e 603 666
e 604 821
e 604 685
e 606 777
e 606 772
e 608 653
e 608 977
e 608 914
e 609 868
e 609 757
e 609 877
e 611 727
e 611 844
e 612 984
e 613 676
e 613 826
e 613 798
e 614 619
e 615 998
e 616 883
e 617 637
e 618 844
e 618 907
e 618 799
e 621 644
e 621 762
e 623 634
e 624 727
e 625 667
e 625 686
e 626 804
e 627 690
e 627 886
e 628 692
e 631 681
e 631 883
e 632 998
e 632 758
e 632 660
e 634 637
e 634 952
e 634 880
e 634 681
e 637 985
e 637 797
e 638 727
e 638 955
e 639 705
e 639 661
e 639 978
e 639 647
e 641 646
e 641 814
e 641 688
e 647 767
e 647 722
e 647 682
e 649 673
e 650 978
e 650 787
e 652 920
e 652 689
e 653 654
e 653 906
e 654 837
e 654 853
e 656 771
e 656 772
e 657 769
e 657 985
e 658 669
e 658 867
e 659 768
e 659 980
e 659 775
e 659 803
e 660 969
e 661 878
e 662 812
e 662 941
e 664 848
e 665 723
e 665 805
e 666 884
e 667 776
e 668 813
e 668 984
e 668 795
e 668 825
e 668 695
e 669 695
e 670 913
e 670 758
e 670 735
e 672 858
e 672 920
e 673 861
e 673 929
e 673 927
e 673 758
e 677 992
e 680 774
e 680 994
e 680 757
e 680 810
e 680 917
e 681 808
e 681 990
e 682 853
e 684 730
e 684 804
e 684 985
e 685 696
e 685 968
e 686 851
e 686 872
e 686 764
e 687 966
e 687 832
e 688 726
e 688 799
e 689 801
e 689 706
e 689 966
e 689 983
e 690 930
e 691 772
e 693 816
e 693 828
e 693 742
e 694 705
e 696 849
e 696 726
e 696 759
e 696 800
e 698 745
e 698 707
e 699 849
e 699 881
e 699 752
e 700 739
e 700 794
e 702 721
e 702 913
e 703 941
e 705 843
e 706 767
e 706 879
e 707 968
e 707 730
e 709 760
e 709 906
e 714 865
e 714 989
e 715 770
e 718 916
e 719 951
e 719 865
e 719 726
e 722 930
e 722 863
e 722 768
e 723 752
e 723 809
e 723 894
e 731 761
e 732 919
e 732 938
e 736 803
e 736 998
e 736 758
e 738 911
e 738 774
e 739 951
e 739 779
e 739 976
e 739 862
e 740 999
e 741 754
e 741 818
e 742 963
e 742 976
e 744 794
e 745 841
e 745 803
e 745 839
e 747 888
e 747 863
e 747 951
e 748 937
e 748 752
e 749 776
e 752 858
e 756 915
e 757 891
e 758 948
e 758 776
e 758 784
e 760 820
e 761 877
e 761 795
e 762 765
e 763 964
e 765 850
e 765 946
e 766 941
e 767 888
e 767 862
e 767 919
e 768 880
e 770 953
e 772 805
e 774 988
e 774 915
e 776 934
e 778 964
e 779 783
e 779 804
e 781 795
e 783 821
e 783 994
e 784 798
e 785 878
e 785 932
e 785 889
e 787 849
e 791 941
e 791 932
e 791 938
e 792 959
e 792 862
e 794 818
e 795 820
e 796 889
e 796 806
e 797 852
e 798 976
e 798 909
e 799 808
e 802 817
e 809 934
e 810 876
e 812 948
e 813 977
e 816 998
e 817 999
e 819 930
e 819 998
e 821 910
e 823 936
e 825 964
e 826 829
e 827 877
e 827 868
e 827 985
e 830 968
e 830 937
e 832 914
e 834 953
e 834 964
e 836 989
e 836 979
e 839 894
e 841 939
e 843 900
e 847 950
e 849 978
e 850 909
e 851 990
e 852 986
e 853 981
e 853 963
e 856 866
e 856 885
e 858 985
e 860 961
e 861 866
e 861 904
e 862 876
e 863 940
e 863 961
e 867 935
e 868 931
e 872 950
e 874 892
e 875 988
e 875 959
e 877 892
e 877 907
e 878 883
e 878 988
e 881 981
e 883 919
e 889 904
e 889 969
e 890 921
e 892 984
e 892 953
e 895 997
e 900 909
e 900 991
e 908 911
e 909 973
e 910 929
e 914 985
e 915 941
e 921 981
e 928 994
e 932 997
e 933 945
e 938 941
e 938 966
e 941 959
e 949 971
e 976 985
e 978 987
e 979 980
